c preprocessed version of david, 29 vertices, 191 edges
p td 29 191
1 0
14 0
13 0
12 0
1 2
1 4
14 1
12 1
5 1
2 3
2 4
14 2
13 2
12 2
5 2
4 3
14 3
17 3
5 4
17 4
5 6
9 5
16 5
6 7
6 8
10 6
7 8
11 7
10 7
9 8
16 8
17 8
18 8
9 10
9 16
15 9
18 9
10 11
10 12
10 16
15 10
18 10
12 11
15 11
13 12
14 12
14 13
15 16
15 18
15 17
17 16
18 16
17 18
19 28
19 0
19 1
19 2
19 3
19 24
19 12
19 21
19 25
19 23
19 13
19 14
19 20
19 22
19 26
19 27
20 28
20 1
20 2
20 3
20 17
20 22
20 21
20 25
20 23
20 4
20 6
20 5
20 24
20 9
20 15
20 16
20 26
20 27
20 18
21 28
21 0
21 1
21 24
21 12
21 25
21 23
21 14
21 22
21 26
21 27
22 28
22 18
22 0
22 1
22 3
22 17
22 11
22 23
22 25
22 14
22 12
22 24
22 15
22 10
22 26
22 27
23 28
23 0
23 1
23 3
23 24
23 12
23 25
23 14
23 26
23 27
24 28
24 0
24 2
24 5
24 7
24 11
24 25
24 13
24 14
24 12
24 6
24 10
24 15
24 26
24 27
25 28
25 0
25 1
25 12
25 14
25 26
25 27
26 28
26 15
26 17
26 18
26 9
26 10
26 16
26 5
26 6
26 14
26 13
26 12
26 1
26 2
26 4
26 11
26 0
26 27
26 7
26 8
26 3
27 28
27 15
27 17
27 18
27 9
27 10
27 16
27 5
27 6
27 8
27 14
28 5
28 7
28 6
28 10
28 11
28 12
28 13
28 9
28 16
28 17
28 18
28 15
